nNurses = 137;
nHours = 37;
minHours = 3;
maxHours = 20;
maxConsec = 18;
maxPresence = 18;
demand = [17, 21, 23, 20, 18, 21, 25, 26, 28, 30, 32, 31, 29, 25, 21, 23, 21, 17, 13, 11, 11, 8, 13, 12, 17, 19, 21, 22, 22, 25, 30, 32, 28, 24, 26, 28, 26];
